c Reduced graph for queen9_9g generated by Cyril Grelier
p edge 81 1056
e 1 2
e 1 3
e 1 4
e 1 7
e 1 8
e 1 10
e 1 11
e 1 14
e 1 15
e 1 19
e 1 22
e 1 26
e 1 28
e 1 31
e 1 32
e 1 33
e 1 34
e 1 36
e 1 37
e 1 44
e 1 46
e 1 48
e 1 49
e 1 55
e 1 57
e 1 63
e 1 64
e 1 66
e 1 67
e 1 68
e 1 69
e 1 77
e 2 5
e 2 7
e 2 10
e 2 11
e 2 13
e 2 14
e 2 15
e 2 16
e 2 17
e 2 18
e 2 20
e 2 21
e 2 25
e 2 32
e 2 33
e 2 34
e 2 38
e 2 39
e 2 40
e 2 45
e 2 47
e 2 51
e 2 58
e 2 66
e 2 67
e 2 68
e 2 74
e 2 76
e 2 78
e 3 5
e 3 6
e 3 9
e 3 14
e 3 17
e 3 18
e 3 19
e 3 24
e 3 26
e 3 28
e 3 31
e 3 32
e 3 35
e 3 37
e 3 39
e 3 42
e 3 46
e 3 48
e 3 52
e 3 54
e 3 59
e 3 66
e 3 67
e 3 68
e 3 69
e 3 71
e 3 72
e 3 79
e 3 80
e 4 8
e 4 9
e 4 14
e 4 15
e 4 16
e 4 17
e 4 20
e 4 21
e 4 23
e 4 24
e 4 27
e 4 30
e 4 31
e 4 32
e 4 33
e 4 35
e 4 36
e 4 44
e 4 48
e 4 54
e 4 57
e 4 61
e 4 62
e 4 67
e 4 69
e 4 75
e 4 77
e 5 6
e 5 7
e 5 8
e 5 12
e 5 15
e 5 17
e 5 31
e 5 33
e 5 35
e 5 38
e 5 42
e 5 45
e 5 47
e 5 49
e 5 50
e 5 51
e 5 54
e 5 56
e 5 58
e 5 59
e 5 62
e 5 67
e 5 68
e 5 72
e 5 74
e 5 80
e 6 8
e 6 13
e 6 15
e 6 16
e 6 18
e 6 30
e 6 32
e 6 34
e 6 35
e 6 40
e 6 41
e 6 43
e 6 44
e 6 46
e 6 50
e 6 51
e 6 54
e 6 59
e 6 60
e 6 66
e 6 67
e 6 68
e 6 70
e 6 72
e 6 73
e 6 81
e 7 8
e 7 10
e 7 11
e 7 12
e 7 16
e 7 19
e 7 20
e 7 32
e 7 33
e 7 34
e 7 35
e 7 36
e 7 38
e 7 42
e 7 43
e 7 45
e 7 47
e 7 53
e 7 55
e 7 65
e 7 66
e 7 72
e 7 79
e 8 12
e 8 13
e 8 15
e 8 18
e 8 34
e 8 36
e 8 37
e 8 39
e 8 40
e 8 42
e 8 45
e 8 48
e 8 55
e 8 56
e 8 57
e 8 60
e 8 67
e 8 71
e 8 73
e 8 74
e 8 77
e 9 11
e 9 14
e 9 17
e 9 18
e 9 19
e 9 21
e 9 22
e 9 25
e 9 29
e 9 30
e 9 33
e 9 35
e 9 36
e 9 42
e 9 44
e 9 50
e 9 51
e 9 52
e 9 57
e 9 66
e 9 69
e 9 71
e 9 75
e 9 79
e 10 11
e 10 12
e 10 21
e 10 25
e 10 26
e 10 27
e 10 31
e 10 32
e 10 33
e 10 34
e 10 35
e 10 39
e 10 49
e 10 53
e 10 57
e 10 63
e 10 66
e 10 72
e 10 74
e 10 75
e 10 77
e 11 24
e 11 28
e 11 29
e 11 32
e 11 33
e 11 34
e 11 44
e 11 46
e 11 52
e 11 54
e 11 57
e 11 59
e 11 60
e 11 61
e 11 64
e 11 66
e 11 71
e 11 73
e 11 77
e 12 14
e 12 15
e 12 20
e 12 25
e 12 26
e 12 27
e 12 42
e 12 45
e 12 47
e 12 50
e 12 52
e 12 53
e 12 63
e 12 69
e 12 70
e 12 72
e 12 73
e 12 74
e 12 75
e 12 76
e 13 14
e 13 16
e 13 18
e 13 21
e 13 28
e 13 34
e 13 38
e 13 39
e 13 42
e 13 45
e 13 56
e 13 63
e 13 65
e 13 68
e 13 72
e 13 73
e 13 76
e 13 77
e 13 78
e 13 80
e 13 81
e 14 15
e 14 16
e 14 19
e 14 21
e 14 26
e 14 28
e 14 30
e 14 31
e 14 33
e 14 35
e 14 37
e 14 39
e 14 45
e 14 46
e 14 47
e 14 52
e 14 53
e 14 68
e 14 69
e 14 70
e 14 73
e 14 75
e 14 76
e 15 16
e 15 17
e 15 36
e 15 38
e 15 41
e 15 43
e 15 47
e 15 48
e 15 50
e 15 51
e 15 52
e 15 53
e 15 57
e 15 58
e 15 60
e 15 66
e 15 67
e 15 69
e 15 70
e 15 73
e 15 74
e 15 77
e 16 17
e 16 20
e 16 21
e 16 23
e 16 24
e 16 27
e 16 31
e 16 36
e 16 39
e 16 41
e 16 43
e 16 44
e 16 45
e 16 47
e 16 50
e 16 60
e 16 66
e 16 68
e 16 72
e 16 76
e 16 79
e 17 18
e 17 20
e 17 23
e 17 24
e 17 27
e 17 31
e 17 34
e 17 36
e 17 38
e 17 42
e 17 44
e 17 51
e 17 58
e 17 59
e 17 66
e 17 69
e 17 70
e 17 71
e 17 74
e 17 76
e 17 79
e 18 20
e 18 25
e 18 34
e 18 38
e 18 40
e 18 41
e 18 42
e 18 45
e 18 46
e 18 47
e 18 48
e 18 49
e 18 61
e 18 66
e 18 67
e 18 69
e 18 71
e 18 73
e 18 75
e 18 78
e 18 79
e 19 20
e 19 21
e 19 22
e 19 25
e 19 26
e 19 27
e 19 28
e 19 29
e 19 31
e 19 35
e 19 36
e 19 37
e 19 38
e 19 43
e 19 46
e 19 50
e 19 51
e 19 53
e 19 55
e 19 62
e 19 65
e 20 23
e 20 24
e 20 25
e 20 27
e 20 31
e 20 35
e 20 38
e 20 40
e 20 43
e 20 44
e 20 47
e 20 50
e 20 53
e 20 55
e 20 65
e 20 67
e 20 76
e 20 78
e 21 22
e 21 25
e 21 29
e 21 31
e 21 32
e 21 36
e 21 39
e 21 45
e 21 50
e 21 51
e 21 53
e 21 54
e 21 57
e 21 61
e 21 62
e 21 68
e 21 69
e 21 76
e 22 23
e 22 24
e 22 25
e 22 29
e 22 30
e 22 34
e 22 36
e 22 37
e 22 41
e 22 44
e 22 49
e 22 50
e 22 51
e 22 52
e 22 54
e 22 55
e 22 58
e 22 63
e 22 64
e 22 68
e 22 69
e 22 78
e 23 24
e 23 27
e 23 29
e 23 31
e 23 34
e 23 37
e 23 41
e 23 44
e 23 45
e 23 51
e 23 52
e 23 54
e 23 56
e 23 58
e 23 65
e 23 66
e 23 67
e 23 70
e 23 73
e 23 78
e 23 79
e 24 27
e 24 28
e 24 29
e 24 30
e 24 31
e 24 32
e 24 39
e 24 44
e 24 48
e 24 52
e 24 59
e 24 60
e 24 61
e 24 64
e 24 73
e 24 80
e 25 26
e 25 27
e 25 29
e 25 36
e 25 40
e 25 43
e 25 47
e 25 50
e 25 51
e 25 63
e 25 67
e 25 72
e 25 74
e 25 75
e 25 78
e 26 27
e 26 28
e 26 30
e 26 31
e 26 37
e 26 43
e 26 46
e 26 57
e 26 58
e 26 62
e 26 63
e 26 64
e 26 72
e 26 74
e 26 75
e 26 76
e 26 79
e 27 31
e 27 33
e 27 44
e 27 48
e 27 53
e 27 62
e 27 63
e 27 68
e 27 71
e 27 72
e 27 74
e 27 75
e 27 81
e 28 29
e 28 31
e 28 37
e 28 42
e 28 46
e 28 59
e 28 60
e 28 61
e 28 63
e 28 64
e 28 65
e 28 73
e 28 77
e 28 78
e 28 80
e 28 81
e 29 36
e 29 45
e 29 50
e 29 51
e 29 56
e 29 58
e 29 59
e 29 60
e 29 61
e 29 64
e 29 65
e 29 66
e 29 67
e 29 70
e 29 73
e 30 32
e 30 33
e 30 35
e 30 40
e 30 43
e 30 44
e 30 46
e 30 51
e 30 57
e 30 58
e 30 62
e 30 64
e 30 70
e 30 75
e 30 76
e 30 79
e 30 81
e 31 33
e 31 37
e 31 44
e 31 46
e 31 47
e 31 49
e 31 50
e 31 53
e 31 56
e 31 57
e 31 62
e 31 80
e 32 33
e 32 34
e 32 39
e 32 40
e 32 44
e 32 46
e 32 48
e 32 51
e 32 52
e 32 54
e 32 61
e 32 62
e 32 66
e 32 69
e 32 70
e 32 80
e 32 81
e 33 34
e 33 35
e 33 47
e 33 48
e 33 49
e 33 50
e 33 53
e 33 56
e 33 62
e 33 66
e 33 68
e 33 71
e 33 75
e 33 80
e 33 81
e 34 36
e 34 37
e 34 41
e 34 52
e 34 54
e 34 58
e 34 59
e 34 66
e 34 70
e 34 73
e 34 76
e 34 78
e 35 38
e 35 39
e 35 43
e 35 49
e 35 53
e 35 54
e 35 55
e 35 59
e 35 65
e 35 67
e 35 68
e 35 72
e 35 75
e 35 77
e 36 47
e 36 48
e 36 50
e 36 51
e 36 57
e 36 59
e 36 67
e 36 70
e 36 72
e 36 76
e 36 77
e 36 79
e 37 39
e 37 40
e 37 41
e 37 46
e 37 52
e 37 54
e 37 55
e 37 56
e 37 58
e 37 60
e 37 61
e 37 71
e 37 74
e 37 78
e 37 81
e 38 41
e 38 43
e 38 45
e 38 46
e 38 48
e 38 49
e 38 51
e 38 53
e 38 55
e 38 56
e 38 58
e 38 61
e 38 65
e 38 72
e 38 74
e 38 75
e 39 40
e 39 45
e 39 48
e 39 49
e 39 52
e 39 55
e 39 56
e 39 60
e 39 68
e 39 71
e 39 74
e 39 76
e 39 77
e 39 80
e 40 41
e 40 42
e 40 44
e 40 46
e 40 47
e 40 51
e 40 55
e 40 56
e 40 59
e 40 60
e 40 67
e 40 70
e 40 71
e 40 74
e 40 78
e 40 81
e 41 42
e 41 43
e 41 45
e 41 46
e 41 48
e 41 49
e 41 50
e 41 52
e 41 54
e 41 58
e 41 59
e 41 60
e 41 61
e 41 66
e 41 75
e 41 78
e 42 45
e 42 59
e 42 63
e 42 65
e 42 66
e 42 69
e 42 71
e 42 77
e 42 78
e 42 79
e 42 80
e 42 81
e 43 50
e 43 53
e 43 55
e 43 57
e 43 58
e 43 60
e 43 62
e 43 64
e 43 65
e 43 66
e 43 76
e 43 79
e 44 46
e 44 49
e 44 51
e 44 52
e 44 55
e 44 57
e 44 63
e 44 64
e 44 68
e 44 69
e 44 70
e 44 81
e 45 46
e 45 48
e 45 49
e 45 56
e 45 61
e 45 65
e 45 66
e 45 67
e 45 68
e 45 70
e 45 75
e 45 76
e 46 48
e 46 49
e 46 51
e 46 54
e 46 61
e 46 70
e 46 71
e 46 75
e 46 77
e 46 81
e 47 49
e 47 50
e 47 52
e 47 53
e 47 56
e 47 62
e 47 67
e 47 69
e 47 70
e 47 72
e 47 73
e 47 78
e 47 79
e 47 80
e 48 49
e 48 52
e 48 53
e 48 57
e 48 61
e 48 67
e 48 68
e 48 71
e 48 75
e 48 77
e 48 80
e 48 81
e 49 50
e 49 55
e 49 56
e 49 61
e 49 62
e 49 63
e 49 64
e 49 68
e 49 69
e 49 75
e 49 77
e 49 80
e 50 51
e 50 56
e 50 60
e 50 62
e 50 66
e 50 76
e 50 80
e 51 58
e 51 70
e 51 73
e 51 74
e 51 79
e 51 81
e 52 53
e 52 54
e 52 57
e 52 58
e 52 69
e 52 70
e 52 73
e 52 78
e 52 80
e 53 55
e 53 57
e 53 65
e 53 68
e 53 69
e 53 70
e 53 71
e 53 73
e 53 81
e 54 58
e 54 59
e 54 61
e 54 62
e 54 67
e 54 68
e 54 69
e 54 71
e 54 72
e 54 77
e 54 78
e 55 56
e 55 60
e 55 63
e 55 64
e 55 65
e 55 68
e 55 69
e 55 71
e 55 74
e 55 75
e 55 80
e 56 60
e 56 62
e 56 65
e 56 66
e 56 67
e 56 70
e 56 71
e 56 72
e 56 74
e 56 80
e 57 58
e 57 62
e 57 64
e 57 67
e 57 76
e 57 77
e 57 79
e 58 62
e 58 64
e 58 74
e 58 76
e 58 78
e 58 79
e 59 60
e 59 61
e 59 64
e 59 67
e 59 68
e 59 70
e 59 72
e 59 73
e 59 76
e 60 61
e 60 64
e 60 66
e 60 71
e 60 73
e 60 74
e 60 78
e 61 62
e 61 64
e 61 69
e 61 73
e 61 75
e 61 81
e 62 64
e 62 69
e 62 76
e 62 79
e 62 80
e 63 64
e 63 65
e 63 68
e 63 69
e 63 72
e 63 74
e 63 75
e 63 77
e 63 78
e 63 80
e 63 81
e 64 68
e 64 69
e 64 73
e 64 76
e 64 79
e 65 66
e 65 67
e 65 70
e 65 74
e 65 77
e 65 78
e 65 80
e 65 81
e 66 67
e 66 69
e 66 70
e 66 71
e 66 79
e 67 68
e 67 70
e 67 72
e 67 77
e 67 78
e 68 69
e 68 71
e 68 72
e 68 76
e 68 81
e 69 70
e 69 71
e 69 73
e 69 79
e 70 73
e 70 76
e 70 81
e 71 74
e 71 77
e 71 79
e 71 81
e 72 74
e 72 75
e 72 79
e 73 79
e 74 75
e 75 80
e 76 79
e 77 78
e 77 80
e 77 81
e 78 80
e 78 81
e 80 81
